(set-option :produce-models true)
(set-logic QF_LRA)
(set-info :notes | Strip-packing problem.|)
(declare-fun x0 () Real)
(declare-fun y0 () Real)
(declare-fun x1 () Real)
(declare-fun y1 () Real)
(declare-fun x2 () Real)
(declare-fun y2 () Real)
(declare-fun x3 () Real)
(declare-fun y3 () Real)
(declare-fun x4 () Real)
(declare-fun y4 () Real)
(declare-fun x5 () Real)
(declare-fun y5 () Real)
(declare-fun x6 () Real)
(declare-fun y6 () Real)
(declare-fun x7 () Real)
(declare-fun y7 () Real)
(declare-fun x8 () Real)
(declare-fun y8 () Real)
(declare-fun x9 () Real)
(declare-fun y9 () Real)
(declare-fun x10 () Real)
(declare-fun y10 () Real)
(declare-fun x11 () Real)
(declare-fun y11 () Real)
(declare-fun z () Real)
(declare-fun c () Real)
(assert (and (= c z) (and (>= x0 0) 
(and (>= y0 0) 
(and (>= x1 0) 
(and (>= y1 0) 
(and (>= x2 0) 
(and (>= y2 0) 
(and (>= x3 0) 
(and (>= y3 0) 
(and (>= x4 0) 
(and (>= y4 0) 
(and (>= x5 0) 
(and (>= y5 0) 
(and (>= x6 0) 
(and (>= y6 0) 
(and (>= x7 0) 
(and (>= y7 0) 
(and (>= x8 0) 
(and (>= y8 0) 
(and (>= x9 0) 
(and (>= y9 0) 
(and (>= x10 0) 
(and (>= y10 0) 
(and (>= x11 0) 
(and (>= y11 0) 
(and (>= z 0) 
(and (>= c 0) 
(and (<= (+ x0 0.9795969543) z) 
(and (<= 0.9869594221 y0) 
(and (<= y0 1.73205080757) 
(and (<= x0 (- 3.5846302488 0.9795969543)) 
(and (>= x0 0) 
(and (<= (+ x1 0.3284484169) z) 
(and (<= 0.9548902779 y1) 
(and (<= y1 1.73205080757) 
(and (<= x1 (- 3.5846302488 0.3284484169)) 
(and (>= x1 0) 
(and (<= (+ x2 0.4531984465) z) 
(and (<= 0.8758810995 y2) 
(and (<= y2 1.73205080757) 
(and (<= x2 (- 3.5846302488 0.4531984465)) 
(and (>= x2 0) 
(and (<= (+ x3 0.8402812163) z) 
(and (<= 0.867785766 y3) 
(and (<= y3 1.73205080757) 
(and (<= x3 (- 3.5846302488 0.8402812163)) 
(and (>= x3 0) 
(and (<= (+ x4 0.3325555998) z) 
(and (<= 0.6996724347 y4) 
(and (<= y4 1.73205080757) 
(and (<= x4 (- 3.5846302488 0.3325555998)) 
(and (>= x4 0) 
(and (<= (+ x5 0.0479701064) z) 
(and (<= 0.5714406699 y5) 
(and (<= y5 1.73205080757) 
(and (<= x5 (- 3.5846302488 0.0479701064)) 
(and (>= x5 0) 
(and (<= (+ x6 0.7199063875) z) 
(and (<= 0.5692977842 y6) 
(and (<= y6 1.73205080757) 
(and (<= x6 (- 3.5846302488 0.7199063875)) 
(and (>= x6 0) 
(and (<= (+ x7 0.9831052148) z) 
(and (<= 0.5018047812 y7) 
(and (<= y7 1.73205080757) 
(and (<= x7 (- 3.5846302488 0.9831052148)) 
(and (>= x7 0) 
(and (<= (+ x8 0.5341228556) z) 
(and (<= 0.3562334565 y8) 
(and (<= y8 1.73205080757) 
(and (<= x8 (- 3.5846302488 0.5341228556)) 
(and (>= x8 0) 
(and (<= (+ x9 0.5455068845) z) 
(and (<= 0.2023165359 y9) 
(and (<= y9 1.73205080757) 
(and (<= x9 (- 3.5846302488 0.5455068845)) 
(and (>= x9 0) 
(and (<= (+ x10 0.5639929521) z) 
(and (<= 0.0400783202 y10) 
(and (<= y10 1.73205080757) 
(and (<= x10 (- 3.5846302488 0.5639929521)) 
(and (>= x10 0) 
(and (<= (+ x11 0.165974302) z) 
(and (<= 0.0399736498 y11) 
(and (<= y11 1.73205080757) 
(and (<= x11 (- 3.5846302488 0.165974302)) 
(and (>= x11 0) 
(and (<= c 3.5846302488) 
(and (or (<= (+ x0 0.9795969543) x1) (or (<= (+ x1 0.3284484169) x0) (or (>= (- y0 0.9869594221) y1) (or (>= (- y1 0.9548902779) y0))))) 
(and (or (<= (+ x0 0.9795969543) x2) (or (<= (+ x2 0.4531984465) x0) (or (>= (- y0 0.9869594221) y2) (or (>= (- y2 0.8758810995) y0))))) 
(and (or (<= (+ x0 0.9795969543) x3) (or (<= (+ x3 0.8402812163) x0) (or (>= (- y0 0.9869594221) y3) (or (>= (- y3 0.867785766) y0))))) 
(and (or (<= (+ x0 0.9795969543) x4) (or (<= (+ x4 0.3325555998) x0) (or (>= (- y0 0.9869594221) y4) (or (>= (- y4 0.6996724347) y0))))) 
(and (or (<= (+ x0 0.9795969543) x5) (or (<= (+ x5 0.0479701064) x0) (or (>= (- y0 0.9869594221) y5) (or (>= (- y5 0.5714406699) y0))))) 
(and (or (<= (+ x0 0.9795969543) x6) (or (<= (+ x6 0.7199063875) x0) (or (>= (- y0 0.9869594221) y6) (or (>= (- y6 0.5692977842) y0))))) 
(and (or (<= (+ x0 0.9795969543) x7) (or (<= (+ x7 0.9831052148) x0) (or (>= (- y0 0.9869594221) y7) (or (>= (- y7 0.5018047812) y0))))) 
(and (or (<= (+ x0 0.9795969543) x8) (or (<= (+ x8 0.5341228556) x0) (or (>= (- y0 0.9869594221) y8) (or (>= (- y8 0.3562334565) y0))))) 
(and (or (<= (+ x0 0.9795969543) x9) (or (<= (+ x9 0.5455068845) x0) (or (>= (- y0 0.9869594221) y9) (or (>= (- y9 0.2023165359) y0))))) 
(and (or (<= (+ x0 0.9795969543) x10) (or (<= (+ x10 0.5639929521) x0) (or (>= (- y0 0.9869594221) y10) (or (>= (- y10 0.0400783202) y0))))) 
(and (or (<= (+ x0 0.9795969543) x11) (or (<= (+ x11 0.165974302) x0) (or (>= (- y0 0.9869594221) y11) (or (>= (- y11 0.0399736498) y0))))) 
(and (or (<= (+ x1 0.3284484169) x2) (or (<= (+ x2 0.4531984465) x1) (or (>= (- y1 0.9548902779) y2) (or (>= (- y2 0.8758810995) y1))))) 
(and (or (<= (+ x1 0.3284484169) x3) (or (<= (+ x3 0.8402812163) x1) (or (>= (- y1 0.9548902779) y3) (or (>= (- y3 0.867785766) y1))))) 
(and (or (<= (+ x1 0.3284484169) x4) (or (<= (+ x4 0.3325555998) x1) (or (>= (- y1 0.9548902779) y4) (or (>= (- y4 0.6996724347) y1))))) 
(and (or (<= (+ x1 0.3284484169) x5) (or (<= (+ x5 0.0479701064) x1) (or (>= (- y1 0.9548902779) y5) (or (>= (- y5 0.5714406699) y1))))) 
(and (or (<= (+ x1 0.3284484169) x6) (or (<= (+ x6 0.7199063875) x1) (or (>= (- y1 0.9548902779) y6) (or (>= (- y6 0.5692977842) y1))))) 
(and (or (<= (+ x1 0.3284484169) x7) (or (<= (+ x7 0.9831052148) x1) (or (>= (- y1 0.9548902779) y7) (or (>= (- y7 0.5018047812) y1))))) 
(and (or (<= (+ x1 0.3284484169) x8) (or (<= (+ x8 0.5341228556) x1) (or (>= (- y1 0.9548902779) y8) (or (>= (- y8 0.3562334565) y1))))) 
(and (or (<= (+ x1 0.3284484169) x9) (or (<= (+ x9 0.5455068845) x1) (or (>= (- y1 0.9548902779) y9) (or (>= (- y9 0.2023165359) y1))))) 
(and (or (<= (+ x1 0.3284484169) x10) (or (<= (+ x10 0.5639929521) x1) (or (>= (- y1 0.9548902779) y10) (or (>= (- y10 0.0400783202) y1))))) 
(and (or (<= (+ x1 0.3284484169) x11) (or (<= (+ x11 0.165974302) x1) (or (>= (- y1 0.9548902779) y11) (or (>= (- y11 0.0399736498) y1))))) 
(and (or (<= (+ x2 0.4531984465) x3) (or (<= (+ x3 0.8402812163) x2) (or (>= (- y2 0.8758810995) y3) (or (>= (- y3 0.867785766) y2))))) 
(and (or (<= (+ x2 0.4531984465) x4) (or (<= (+ x4 0.3325555998) x2) (or (>= (- y2 0.8758810995) y4) (or (>= (- y4 0.6996724347) y2))))) 
(and (or (<= (+ x2 0.4531984465) x5) (or (<= (+ x5 0.0479701064) x2) (or (>= (- y2 0.8758810995) y5) (or (>= (- y5 0.5714406699) y2))))) 
(and (or (<= (+ x2 0.4531984465) x6) (or (<= (+ x6 0.7199063875) x2) (or (>= (- y2 0.8758810995) y6) (or (>= (- y6 0.5692977842) y2))))) 
(and (or (<= (+ x2 0.4531984465) x7) (or (<= (+ x7 0.9831052148) x2) (or (>= (- y2 0.8758810995) y7) (or (>= (- y7 0.5018047812) y2))))) 
(and (or (<= (+ x2 0.4531984465) x8) (or (<= (+ x8 0.5341228556) x2) (or (>= (- y2 0.8758810995) y8) (or (>= (- y8 0.3562334565) y2))))) 
(and (or (<= (+ x2 0.4531984465) x9) (or (<= (+ x9 0.5455068845) x2) (or (>= (- y2 0.8758810995) y9) (or (>= (- y9 0.2023165359) y2))))) 
(and (or (<= (+ x2 0.4531984465) x10) (or (<= (+ x10 0.5639929521) x2) (or (>= (- y2 0.8758810995) y10) (or (>= (- y10 0.0400783202) y2))))) 
(and (or (<= (+ x2 0.4531984465) x11) (or (<= (+ x11 0.165974302) x2) (or (>= (- y2 0.8758810995) y11) (or (>= (- y11 0.0399736498) y2))))) 
(and (or (<= (+ x3 0.8402812163) x4) (or (<= (+ x4 0.3325555998) x3) (or (>= (- y3 0.867785766) y4) (or (>= (- y4 0.6996724347) y3))))) 
(and (or (<= (+ x3 0.8402812163) x5) (or (<= (+ x5 0.0479701064) x3) (or (>= (- y3 0.867785766) y5) (or (>= (- y5 0.5714406699) y3))))) 
(and (or (<= (+ x3 0.8402812163) x6) (or (<= (+ x6 0.7199063875) x3) (or (>= (- y3 0.867785766) y6) (or (>= (- y6 0.5692977842) y3))))) 
(and (or (<= (+ x3 0.8402812163) x7) (or (<= (+ x7 0.9831052148) x3) (or (>= (- y3 0.867785766) y7) (or (>= (- y7 0.5018047812) y3))))) 
(and (or (<= (+ x3 0.8402812163) x8) (or (<= (+ x8 0.5341228556) x3) (or (>= (- y3 0.867785766) y8) (or (>= (- y8 0.3562334565) y3))))) 
(and (or (<= (+ x3 0.8402812163) x9) (or (<= (+ x9 0.5455068845) x3) (or (>= (- y3 0.867785766) y9) (or (>= (- y9 0.2023165359) y3))))) 
(and (or (<= (+ x3 0.8402812163) x10) (or (<= (+ x10 0.5639929521) x3) (or (>= (- y3 0.867785766) y10) (or (>= (- y10 0.0400783202) y3))))) 
(and (or (<= (+ x3 0.8402812163) x11) (or (<= (+ x11 0.165974302) x3) (or (>= (- y3 0.867785766) y11) (or (>= (- y11 0.0399736498) y3))))) 
(and (or (<= (+ x4 0.3325555998) x5) (or (<= (+ x5 0.0479701064) x4) (or (>= (- y4 0.6996724347) y5) (or (>= (- y5 0.5714406699) y4))))) 
(and (or (<= (+ x4 0.3325555998) x6) (or (<= (+ x6 0.7199063875) x4) (or (>= (- y4 0.6996724347) y6) (or (>= (- y6 0.5692977842) y4))))) 
(and (or (<= (+ x4 0.3325555998) x7) (or (<= (+ x7 0.9831052148) x4) (or (>= (- y4 0.6996724347) y7) (or (>= (- y7 0.5018047812) y4))))) 
(and (or (<= (+ x4 0.3325555998) x8) (or (<= (+ x8 0.5341228556) x4) (or (>= (- y4 0.6996724347) y8) (or (>= (- y8 0.3562334565) y4))))) 
(and (or (<= (+ x4 0.3325555998) x9) (or (<= (+ x9 0.5455068845) x4) (or (>= (- y4 0.6996724347) y9) (or (>= (- y9 0.2023165359) y4))))) 
(and (or (<= (+ x4 0.3325555998) x10) (or (<= (+ x10 0.5639929521) x4) (or (>= (- y4 0.6996724347) y10) (or (>= (- y10 0.0400783202) y4))))) 
(and (or (<= (+ x4 0.3325555998) x11) (or (<= (+ x11 0.165974302) x4) (or (>= (- y4 0.6996724347) y11) (or (>= (- y11 0.0399736498) y4))))) 
(and (or (<= (+ x5 0.0479701064) x6) (or (<= (+ x6 0.7199063875) x5) (or (>= (- y5 0.5714406699) y6) (or (>= (- y6 0.5692977842) y5))))) 
(and (or (<= (+ x5 0.0479701064) x7) (or (<= (+ x7 0.9831052148) x5) (or (>= (- y5 0.5714406699) y7) (or (>= (- y7 0.5018047812) y5))))) 
(and (or (<= (+ x5 0.0479701064) x8) (or (<= (+ x8 0.5341228556) x5) (or (>= (- y5 0.5714406699) y8) (or (>= (- y8 0.3562334565) y5))))) 
(and (or (<= (+ x5 0.0479701064) x9) (or (<= (+ x9 0.5455068845) x5) (or (>= (- y5 0.5714406699) y9) (or (>= (- y9 0.2023165359) y5))))) 
(and (or (<= (+ x5 0.0479701064) x10) (or (<= (+ x10 0.5639929521) x5) (or (>= (- y5 0.5714406699) y10) (or (>= (- y10 0.0400783202) y5))))) 
(and (or (<= (+ x5 0.0479701064) x11) (or (<= (+ x11 0.165974302) x5) (or (>= (- y5 0.5714406699) y11) (or (>= (- y11 0.0399736498) y5))))) 
(and (or (<= (+ x6 0.7199063875) x7) (or (<= (+ x7 0.9831052148) x6) (or (>= (- y6 0.5692977842) y7) (or (>= (- y7 0.5018047812) y6))))) 
(and (or (<= (+ x6 0.7199063875) x8) (or (<= (+ x8 0.5341228556) x6) (or (>= (- y6 0.5692977842) y8) (or (>= (- y8 0.3562334565) y6))))) 
(and (or (<= (+ x6 0.7199063875) x9) (or (<= (+ x9 0.5455068845) x6) (or (>= (- y6 0.5692977842) y9) (or (>= (- y9 0.2023165359) y6))))) 
(and (or (<= (+ x6 0.7199063875) x10) (or (<= (+ x10 0.5639929521) x6) (or (>= (- y6 0.5692977842) y10) (or (>= (- y10 0.0400783202) y6))))) 
(and (or (<= (+ x6 0.7199063875) x11) (or (<= (+ x11 0.165974302) x6) (or (>= (- y6 0.5692977842) y11) (or (>= (- y11 0.0399736498) y6))))) 
(and (or (<= (+ x7 0.9831052148) x8) (or (<= (+ x8 0.5341228556) x7) (or (>= (- y7 0.5018047812) y8) (or (>= (- y8 0.3562334565) y7))))) 
(and (or (<= (+ x7 0.9831052148) x9) (or (<= (+ x9 0.5455068845) x7) (or (>= (- y7 0.5018047812) y9) (or (>= (- y9 0.2023165359) y7))))) 
(and (or (<= (+ x7 0.9831052148) x10) (or (<= (+ x10 0.5639929521) x7) (or (>= (- y7 0.5018047812) y10) (or (>= (- y10 0.0400783202) y7))))) 
(and (or (<= (+ x7 0.9831052148) x11) (or (<= (+ x11 0.165974302) x7) (or (>= (- y7 0.5018047812) y11) (or (>= (- y11 0.0399736498) y7))))) 
(and (or (<= (+ x8 0.5341228556) x9) (or (<= (+ x9 0.5455068845) x8) (or (>= (- y8 0.3562334565) y9) (or (>= (- y9 0.2023165359) y8))))) 
(and (or (<= (+ x8 0.5341228556) x10) (or (<= (+ x10 0.5639929521) x8) (or (>= (- y8 0.3562334565) y10) (or (>= (- y10 0.0400783202) y8))))) 
(and (or (<= (+ x8 0.5341228556) x11) (or (<= (+ x11 0.165974302) x8) (or (>= (- y8 0.3562334565) y11) (or (>= (- y11 0.0399736498) y8))))) 
(and (or (<= (+ x9 0.5455068845) x10) (or (<= (+ x10 0.5639929521) x9) (or (>= (- y9 0.2023165359) y10) (or (>= (- y10 0.0400783202) y9))))) 
(and (or (<= (+ x9 0.5455068845) x11) (or (<= (+ x11 0.165974302) x9) (or (>= (- y9 0.2023165359) y11) (or (>= (- y11 0.0399736498) y9))))) 
(and (or (<= (+ x10 0.5639929521) x11) (or (<= (+ x11 0.165974302) x10) (or (>= (- y10 0.0400783202) y11) (or (>= (- y11 0.0399736498) y10))))) )))))))))))))))))))))))))))))))))))))))))))))))))))))))))))))))))))))))))))))))))))))))))))))))))))))))))))))))))))))))))))))))))))))))))))))))))))))))))))
(minimize c)
(check-sat)
(get-objectives)
(exit)
